2	25
700	25	332	248	908	463	20	119	209	821	478	376	401	541	814	248	659	790	154	183	634	480	297	594	51	
124	847	936	405	460	122	20	13	409	685	605	8	575	228	538	804	526	349	30	596	495	109	458	864	294	
2625	2625	
